# SOGGA11X/Gen Freq Opt=(VeryTight,ZMatrix,CalcAll) Int=UltraFine

H2O HARMONIC FREQUENCIES

0 1
  O1
  H2 O1 r2
  H3 O1 r3 H2 a3

   r2 =         0.96900
   r3 =         0.96900
   a3 =       103.97800

H     0
S   3   1.00
      0.122520D+02           0.228220D-01
      0.186870D+01           0.155640D+00
      0.418210D+00           0.488980D+00
S   1   1.00
      0.106100D+00           0.100000D+01
S   1   1.00
      0.256280D-01           0.100000D+01
P   1   1.00
      0.100000D+01           0.100000D+01
P   1   1.00
      0.768840D-01           0.100000D+01
****
O     0
S   5   1.00
      0.230670D+04           0.539400D-02
      0.347150D+03           0.402480D-01
      0.788900D+02           0.179210D+00
      0.218760D+02           0.459780D+00
      0.666460D+01           0.452340D+00
S   5   1.00
      0.347150D+03          -0.316920D-03
      0.788900D+02          -0.259440D-02
      0.218760D+02          -0.362410D-01
      0.666460D+01          -0.877900D-01
      0.106690D+01           0.533200D+00
S   1   1.00
      0.307000D+00           0.100000D+01
S   1   1.00
      0.834250D-01           0.100000D+01
P   3   1.00
      0.170220D+02           0.489190D-01
      0.368380D+01           0.249620D+00
      0.992340D+00           0.513470D+00
P   1   1.00
      0.244870D+00           0.100000D+01
P   1   1.00
      0.576160D-01           0.100000D+01
D   1   1.00
      0.100000D+01           0.100000D+01
D   1   1.00
      0.172850D+00           0.100000D+01
****


