%NprocShared=4
%chk=checkpoint.chk
# wB97xD/Gen Freq Opt=(VeryTight,ZMatrix,CalcAll) Int=UltraFine

CFC-114 - ClF2C-CClF2 HARMONIC FREQUENCIES

0  1
C
C  1  r2
Cl  1  r3  2  a3
F  1  r4  2  a4  3  d4
F  1  r5  2  a5  3  d5
F  2  r6  1  a6  3  d6
F  2  r7  1  a7  3  d7
Cl  2  r8  1  a8  3  d8
Variables:
r2= 1.5394
r3= 1.7848
a3= 112.30
r4= 1.3628
a4= 110.94
d4= 238.76
r5= 1.3628
a5= 110.94
d5= 121.24
r6= 1.3629
a6= 110.90
d6=  58.72
r7= 1.3629
a7= 110.90
d7= 301.28
r8= 1.7844
a8= 112.26
d8= 180.00

C     0
S   5   1.00
      0.125260D+04           0.557360D-02
      0.188570D+03           0.414960D-01
      0.428390D+02           0.182630D+00
      0.118180D+02           0.461290D+00
      0.355670D+01           0.449310D+00
S   5   1.00
      0.188570D+03          -0.274400D-03
      0.428390D+02          -0.255830D-02
      0.118180D+02          -0.333750D-01
      0.355670D+01          -0.873050D-01
      0.542580D+00           0.534150D+00
S   1   1.00
      0.160580D+00           0.100000D+01
S   1   1.00
      0.448560D-01           0.100000D+01
P   3   1.00
      0.914260D+01           0.444990D-01
      0.192980D+01           0.231080D+00
      0.525220D+00           0.512270D+00
P   1   1.00
      0.136080D+00           0.100000D+01
P   1   1.00
      0.335180D-01           0.100000D+01
D   1   1.00
      0.800000D+00           0.100000D+01
D   1   1.00
      0.100550D+00           0.100000D+01
****
F     0
S   5   1.00
      0.295460D+04           0.533370D-02
      0.444620D+03           0.398270D-01
      0.101050D+03           0.178020D+00
      0.280680D+02           0.459170D+00
      0.858370D+01           0.453520D+00
S   5   1.00
      0.444620D+03          -0.329620D-03
      0.101050D+03          -0.260830D-02
      0.280680D+02          -0.371500D-01
      0.858370D+01          -0.881780D-01
      0.139860D+01           0.531350D+00
S   1   1.00
      0.399690D+00           0.100000D+01
S   1   1.00
      0.108020D+00           0.100000D+01
P   3   1.00
      0.218830D+02           0.502440D-01
      0.477690D+01           0.254240D+00
      0.128230D+01           0.512200D+00
P   1   1.00
      0.311270D+00           0.100000D+01
P   1   1.00
      0.720540D-01           0.100000D+01
D   1   1.00
      0.110000D+01           0.100000D+01
D   1   1.00
      0.216160D+00           0.100000D+01
****
Cl     0
S   8   1.00
      0.634740D+05           0.580280D-03
      0.952130D+04           0.447920D-02
      0.216740D+04           0.230000D-01
      0.613740D+03           0.888150D-01
      0.199720D+03           0.252580D+00
      0.715640D+02           0.439210D+00
      0.269790D+02           0.318680D+00
      0.682600D+01           0.343480D-01
S   8   1.00
      0.952130D+04          -0.198240D-04
      0.216740D+04          -0.471990D-04
      0.613740D+03          -0.177130D-02
      0.199720D+03          -0.980680D-02
      0.715640D+02          -0.667190D-01
      0.269790D+02          -0.887110D-01
      0.682600D+01           0.493960D+00
      0.257670D+01           0.653920D+00
S   8   1.00
      0.216740D+04           0.905840D-05
      0.613740D+03           0.106950D-03
      0.199720D+03           0.109810D-02
      0.715640D+02           0.598980D-02
      0.269790D+02           0.127620D-01
      0.682600D+01          -0.103070D+00
      0.257670D+01          -0.259410D+00
      0.557520D+00           0.648990D+00
S   1   1.00
      0.198250D+00           0.100000D+01
S   1   1.00
      0.658160D-01           0.100000D+01
P   6   1.00
      0.413120D+03           0.542510D-02
      0.970540D+02           0.416440D-01
      0.304820D+02           0.169900D+00
      0.109620D+02           0.392750D+00
      0.412760D+01           0.450450D+00
      0.153380D+01           0.153080D+00
P   6   1.00
      0.970540D+02          -0.173560D-05
      0.304820D+02          -0.214410D-02
      0.109620D+02          -0.912980D-02
      0.412760D+01          -0.199060D-01
      0.153380D+01           0.155820D+00
      0.514390D+00           0.587720D+00
P   1   1.00
      0.150260D+00           0.100000D+01
P   1   1.00
      0.414670D-01           0.100000D+01
D   1   1.00
      0.600000D+00           0.100000D+01
D   1   1.00
      0.124400D+00           0.100000D+01
****



