$comment
	QCHEM - 1,2-difluoroethane
	Geometry optimization
	Anharmonic frequency analysis
$end

$molecule
0 1
C         -0.61487        1.08139       -0.01148
C          0.89653        1.04038       -0.05036
H         -0.97661        1.49777        0.93220
F         -1.10472       -0.18417       -0.12125
H         -1.01366        1.66195       -0.84739
F          1.36506        0.51827        1.11648
H          1.31422        2.04539       -0.15201
H          1.25568        0.40777       -0.86617

$end

$rem
	JOBTYPE	OPT
	METHOD	M06
	BASIS	def2-TZVP
	SCF_CONVERGENCE	7
$end

@@@

$molecule
	READ
$end

$rem
	JOBTYPE	FREQ
	METHOD	M06
	BASIS	def2-TZVP
	ANHAR	TRUE
	SCF_CONVERGENCE	7
	VCI	4
$end
