$comment
	geom opt + anharmonic freq analysis for C12H3Cl5O2
$end

$molecule
0 1
C	-0.9434816	 2.1736215	-0.9471903
C	-0.8081618	 1.0022327	-17.037758
C	-0.1397481	-0.1024377	-1.1699024
C	 0.3985960	-0.0396536	 0.1290844
C	 0.2648325	 1.1275261	 0.8854266
C	-0.4050341	 2.2365033	 0.3521237
O	-0.0013375	-1.2433564	-1.8915795
O	 1.0448896	-1.1213736	 0.6328648
C	 0.6452936	-2.3279204	-1.3896533
C	 1.1831464	-2.2625711	-0.0894601
C	 0.7798114	-3.4990630	-2.1479341
C	 1.4546865	-4.6097604	-1.6047298
C	 1.9896364	-4.5362352	-0.3037713
C	 1.8513499	-3.3636061	 0.4471824
Cl	 0.0991497	-3.5582001	-3.7718566
Cl	 1.6300049	-6.0885047	-2.5495783
Cl	 2.8396110	-5.8995080	 0.4128459
Cl	-1.7905345	 3.5450135	-1.6497763
Cl	-0.5551854	 3.689093	 1.3312381
H	-1.2209349	 0.9499635	-2.7035386
H	 0.6803247	 1.1720917	 1.8844273
H	 2.2627597	-3.3074426	 1.4473488
$end

$rem
	JOBTYPE	OPT
	METHOD	wB97XD
	BASIS	def2-TZVP
	SCF_CONVERGENCE	7
	SCF_ALGORITHM	DIIS_GDM
	MAX_SCF_CYCLES	200
$end

@@@

$molecule
	READ
$end

$rem
	JOBTYPE	FREQ
	METHOD	wB97XD
	BASIS	def2-TZVP
	ANHAR	TRUE
	VCI	2
	SCF_CONVERGENCE	7
$end
