$comment
	geom opt + anharmonic freq analysis for C2H2O4
$end

$molecule
0 1
C	-1.3974412	 0.6128627	-0.0000000
C	 0.0415263	 0.9261183	-0.0000000
O	 0.4129579	 2.0901202	-0.0000000
O	 0.9501255	-0.0726424	-0.0000000
H	 1.9006506	 0.1093259	-0.0000000
O	-1.7688726	-0.5511392	-0.0000000
O	-2.3060407	 1.6116231	-0.0000000
H	-3.2565657	 1.4296541	-0.0000000
$end

$rem
	JOBTYPE	OPT
	METHOD	M06
	BASIS	def2-TZVP
$end

@@@

$molecule
	READ
$end

$rem
	JOBTYPE	FREQ
	METHOD	M06
	BASIS	def2-TZVP
	ANHAR	TRUE
	VCI	4
$end
