$comment
	QCHEM - phosphorous trifluoride
	Geometry optimization
	Anharmonic frequency analysis
$end

$molecule
0 1
P         -0.53161        2.14075       -0.22716
F          1.00710        1.97419        0.06484
F         -0.88604        2.64957        1.22063
F         -0.88604        0.63556        0.07185

$end

$rem
	JOBTYPE	OPT
	METHOD	M06
	BASIS	def2-TZVP
	SCF_CONVERGENCE	7
$end

@@@

$molecule
	READ
$end

$rem
	JOBTYPE	FREQ
	METHOD	M06
	BASIS	def2-TZVP
	ANHAR	TRUE
	SCF_CONVERGENCE	7
	VCI	4
$end
